
Gurobi 11.0.3 (linux64) logging started Sat Nov 23 18:54:11 2024

Set parameter LogFile to value "/home/yihong/Coding/OR_SUC/SUC_results_bigM100000_thread4/case24_ieee_rts_theta0.5_epsilon0.025_gurobi_seed1150000_num_gen100_N_WDR150_load_scaling_factor1_exact_T24quadra_cost.txt"
Set parameter TimeLimit to value 3600
Gurobi Optimizer version 11.0.3 build v11.0.3rc0 (linux64 - "Ubuntu 20.04.6 LTS")

CPU model: AMD EPYC 7532 32-Core Processor, instruction set [SSE2|AVX|AVX2]
Thread count: 64 physical cores, 128 logical processors, using up to 4 threads

Optimize a model with 54015 rows, 30061 columns and 917478 nonzeros
Model fingerprint: 0x70d3d41b
Model has 2400 quadratic constraints
Variable types: 27511 continuous, 2550 integer (2550 binary)
Coefficient statistics:
  Matrix range     [9e-05, 1e+05]
  QMatrix range    [2e-03, 8e-03]
  QLMatrix range   [5e-01, 6e+01]
  Objective range  [1e+00, 1e+00]
  Bounds range     [1e+00, 1e+00]
  RHS range        [1e+00, 1e+05]
Presolve removed 43779 rows and 12832 columns
Presolve time: 0.31s
Presolved: 10236 rows, 17229 columns, 54868 nonzeros
Presolved model has 2400 quadratic constraint(s)
Variable types: 14739 continuous, 2490 integer (2490 binary)

Root relaxation: objective 7.727713e+04, 8203 iterations, 0.21 seconds (0.29 work units)

    Nodes    |    Current Node    |     Objective Bounds      |     Work
 Expl Unexpl |  Obj  Depth IntInf | Incumbent    BestBd   Gap | It/Node Time

     0     0 77277.1304    0    8          - 77277.1304      -     -    0s
     0     0 377016.383    0  696          - 377016.383      -     -    1s
     0     0 418760.596    0  697          - 418760.596      -     -    1s
     0     0 650648.989    0  709          - 650648.989      -     -    1s
     0     0 650695.685    0  390          - 650695.685      -     -    1s
     0     0 650915.565    0  226          - 650915.565      -     -    1s
     0     0 650917.209    0  226          - 650917.209      -     -    1s
     0     0 650917.209    0  230          - 650917.209      -     -    1s
     0     0 650918.785    0  230          - 650918.785      -     -    2s
     0     2 650918.786    0  230          - 650918.786      -     -    2s
   183   471 650973.917   43  140          - 650920.173      -  21.7    5s
H  483   567                    651869.71602 650920.173  0.15%  13.7    6s
*  483   567             136    651869.71602 650920.173  0.15%  13.7    6s
H  909   635                    651086.57948 650928.668  0.02%  14.1    8s
*  909   635             100    651086.57948 650928.668  0.02%  14.1    8s

Cutting planes:
  Gomory: 10
  Implied bound: 375
  MIR: 77
  Flow cover: 147
  RLT: 1
  Relax-and-lift: 69

Explored 1246 nodes (42700 simplex iterations) in 8.70 seconds (13.09 work units)
Thread count was 4 (of 128 available processors)

Solution count 3: 651087 651087 651870 

Optimal solution found (tolerance 1.00e-03)
Warning: max constraint violation (1.3153e-07) exceeds tolerance
Best objective 6.510865794828e+05, best bound 6.509286682048e+05, gap 0.0243%
